
Gurobi 11.0.0 (win64) logging started Sat Jun 15 09:42:48 2024


Gurobi 11.0.0 (win64) logging started Sat Jun 15 10:41:11 2024


Gurobi 11.0.0 (win64) logging started Sat Jun 15 10:59:59 2024


Gurobi 11.0.0 (win64) logging started Sat Jun 15 13:18:29 2024


Gurobi 11.0.0 (win64) logging started Sat Jun 15 13:52:08 2024


Gurobi 11.0.0 (win64) logging started Tue Jul  2 10:31:24 2024

